59200
20 11 4 -1 500 500 500 
2 13 15 9 7 -1 250 500 100 500 150 
2
1
16 -1 40 
16 -1 40 
16 -1 40 
16 -1 40 
1 -1 40 
6 -1 40 
7 -1 40 
8 -1 40 
19 -1 40 
16 -1 40 
1 -1 40 
6 -1 40 
7 -1 40 
8 -1 40 
19 -1 40 
12 -1 40 
16 -1 40 
17 18 -1 25 15 
1 6 -1 20 20 
7 8 -1 20 20 
19 12 16 -1 20 10 10 
18 16 -1 10 30 
16 -1 40 
16 -1 40 
16 -1 40 
16 -1 40 
16 -1 40 
16 3 -1 20 20 
10 14 -1 25 15 
14 3 5 -1 10 5 25 
2
19 -1 40 
